(declare-fun _for_it_78 () Int)
(declare-fun kfdia () Int)
(declare-fun kidia () Int)
(declare-fun klev () Int)
(declare-fun ncldtop () Int)

(assert (and
  (forall ((_for_it_82_0 Int) (_for_it_82_1 Int))
    (or
      (not (<= (+ kidia (- 1)) _for_it_82_1))
      (not (<= _for_it_82_0 (+ kfdia (- 1))))
      (not (<= (+ kidia (- 1)) _for_it_82_0))
      (not (<= _for_it_82_1 (+ kfdia (- 1))))
    )
  )
  (forall ((_for_it_82_0 Int) (_for_it_82_1 Int))
    (or
      (not (<= _for_it_82_0 (+ kfdia (- 1))))
      (not (<= _for_it_82_1 (+ kfdia (- 1))))
      (not (<= (+ kidia (- 1)) _for_it_82_1))
      (not (= _for_it_82_0 _for_it_82_1))
      (not (<= (+ kidia (- 1)) _for_it_82_0))
    )
  )
  (and
    (<= (+ _for_it_78 1) 4)
    (<= ncldtop (+ klev (- 1)))
    (<= kidia (+ kfdia (- 1)))
    (<= 0 _for_it_78)
  )
  (forall ((_for_it_79_0 Int) (_for_it_79_1 Int))
    (or
      (not (<= _for_it_79_1 (+ kfdia (- 1))))
      (not (<= (+ kidia (- 1)) _for_it_79_1))
      (not (<= _for_it_79_0 (+ kfdia (- 1))))
      (not (<= (+ kidia (- 1)) _for_it_79_0))
      (not (= _for_it_79_0 _for_it_79_1))
    )
  )
  (forall ((_for_it_80_0 Int) (_for_it_80_1 Int) (_for_it_81_0 Int) (_for_it_81_1 Int))
    (or
      (not (<= 0 _for_it_80_0))
      (not (<= _for_it_80_0 4))
      (not (<= (+ kidia (- 1)) _for_it_81_0))
      (not (<= _for_it_81_0 (+ kfdia (- 1))))
      (not (<= _for_it_80_1 4))
      (not (<= 0 _for_it_80_1))
      (not (<= (+ kidia (- 1)) _for_it_81_1))
      (not (<= _for_it_81_1 (+ kfdia (- 1))))
    )
  )
))

(check-sat)